c Result of efficient AIG-to-CNF conversion using package CNF
p cnf 317 1099
-2 3 246 -250 0
-2 3 246 251 0
2 -3 0
2 -246 0
2 250 -251 0
-3 28 244 0
-3 -4 28 0
-3 28 -243 0
3 -28 0
3 4 243 -244 0
4 281 -8 0
4 282 -5 -8 0
-4 8 0
-4 -281 5 0
-4 -281 -282 0
5 283 -6 0
5 -283 -7 0
-5 -283 7 0
-5 283 6 0
6 -284 -287 0
6 284 -288 0
-6 284 288 0
-6 -284 287 0
7 -284 -285 0
7 284 -286 0
-7 284 286 0
-7 -284 285 0
8 -9 -21 0
-8 9 0
-8 21 0
9 -280 10 0
-9 280 0
-9 -10 0
-10 11 17 19 20 0
10 -20 0
10 -11 0
10 -19 0
10 -17 0
-11 277 278 12 14 0
11 -277 0
11 -14 0
11 -12 0
11 -278 0
-12 269 275 276 13 0
12 -13 0
12 -276 0
12 -269 0
12 -275 0
-13 273 274 279 0
13 -273 0
13 -279 0
13 -274 0
-14 270 271 272 15 0
14 -15 0
14 -272 0
14 -270 0
14 -271 0
-15 265 266 16 0
15 -16 0
15 -266 0
15 -265 0
-16 261 262 267 268 0
16 -268 0
16 -267 0
16 -261 0
16 -262 0
-17 259 263 264 18 0
17 -18 0
17 -264 0
17 -259 0
17 -263 0
-18 257 258 0
18 -257 0
18 -258 0
-19 253 260 0
19 -253 0
19 -260 0
-20 254 255 256 0
20 -254 0
20 -256 0
20 -255 0
21 -282 -22 0
21 -281 282 0
21 282 -25 0
-21 -282 22 0
-21 281 282 25 0
22 -283 -23 0
22 283 -24 0
-22 283 24 0
-22 -283 23 0
23 -284 -289 0
23 284 -290 0
-23 284 290 0
-23 -284 289 0
24 -284 -291 0
24 284 -292 0
-24 284 292 0
-24 -284 291 0
25 283 -26 0
25 -283 -27 0
-25 -283 27 0
-25 283 26 0
26 -284 -295 0
26 284 -296 0
-26 284 296 0
-26 -284 295 0
27 -284 -293 0
27 284 -294 0
-27 284 294 0
-27 -284 293 0
28 29 4 175 -189 0
-28 189 0
-28 -175 0
-28 -29 0
-28 -4 0
29 -30 36 0
29 36 173 -174 0
-29 -36 0
-29 30 174 0
-29 30 -173 0
30 -312 31 -32 0
-30 312 0
-30 -31 0
-30 32 0
-31 280 10 0
31 -280 0
31 -10 0
32 281 -33 0
-32 -281 0
-32 33 0
33 282 -34 0
-33 -282 0
-33 34 0
34 -282 -283 0
34 283 -35 0
34 -283 -284 0
-34 283 35 0
-34 282 -283 284 0
35 -281 -284 0
35 -280 284 0
-35 280 284 0
-35 281 -284 0
-36 30 37 133 136 0
36 -37 0
36 -133 0
36 -30 0
36 -136 0
-37 -31 38 0
-37 38 71 121 0
37 -38 0
37 31 -121 0
37 31 -71 0
38 -50 -9 0
38 -286 -39 -9 0
-38 9 0
-38 39 50 0
-38 286 50 0
39 281 -40 0
39 -281 -47 0
-39 -281 47 0
-39 281 40 0
40 282 -41 0
40 -282 -44 0
-40 -282 44 0
-40 282 41 0
41 283 -42 0
41 -283 -43 0
-41 -283 43 0
-41 283 42 0
42 -271 -284 0
42 -270 284 0
-42 270 284 0
-42 271 -284 0
43 -273 -284 0
43 -272 284 0
-43 272 284 0
-43 273 -284 0
44 283 -45 0
44 -283 -46 0
-44 -283 46 0
-44 283 45 0
45 -275 -284 0
45 -274 284 0
-45 274 284 0
-45 275 -284 0
46 -277 -284 0
46 -276 284 0
-46 276 284 0
-46 277 -284 0
-47 -282 -283 0
-47 282 48 0
-47 -282 -284 0
47 282 -48 0
47 -282 283 284 0
48 -283 -35 0
48 283 -49 0
-48 283 49 0
-48 -283 35 0
49 -279 -284 0
49 -278 284 0
-49 278 284 0
-49 279 -284 0
-50 287 51 0
-50 285 64 0
-50 51 64 0
-50 285 287 0
50 -285 -51 0
50 -287 -64 0
51 281 -52 0
51 -281 -59 0
-51 -281 59 0
-51 281 52 0
52 282 -53 0
52 -282 -56 0
-52 -282 56 0
-52 282 53 0
53 283 -54 0
53 -283 -55 0
-53 -283 55 0
-53 283 54 0
54 -270 -284 0
54 -269 284 0
-54 269 284 0
-54 270 -284 0
55 -272 -284 0
55 -271 284 0
-55 271 284 0
-55 272 -284 0
56 283 -57 0
56 -283 -58 0
-56 -283 58 0
-56 283 57 0
57 -274 -284 0
57 -273 284 0
-57 273 284 0
-57 274 -284 0
58 -276 -284 0
58 -275 284 0
-58 275 284 0
-58 276 -284 0
59 282 -60 0
59 -282 -63 0
-59 -282 63 0
-59 282 60 0
60 283 -61 0
60 -283 -62 0
-60 -283 62 0
-60 283 61 0
61 -278 -284 0
61 -277 284 0
-61 277 284 0
-61 278 -284 0
62 -280 -284 0
62 -279 284 0
-62 279 284 0
-62 280 -284 0
-63 282 283 -284 0
-63 281 283 284 0
63 -283 0
63 -281 284 0
63 -282 -284 0
64 281 -65 0
64 -281 -68 0
-64 -281 68 0
-64 281 65 0
65 282 -66 0
65 -282 -67 0
-65 -282 67 0
-65 282 66 0
66 283 -55 0
66 -283 -57 0
-66 -283 57 0
-66 283 55 0
67 283 -58 0
67 -283 -61 0
-67 -283 61 0
-67 283 58 0
68 282 -69 0
68 -282 283 -284 0
-68 -282 -283 0
-68 282 69 0
-68 -282 284 0
69 283 -62 0
69 -283 -70 0
-69 -283 70 0
-69 283 62 0
70 -282 -284 0
70 -281 284 0
-70 281 284 0
-70 282 -284 0
-71 307 75 95 0
-71 72 75 95 0
71 -95 0
71 -75 0
71 -307 -72 0
72 281 -74 0
72 -281 282 -73 0
-72 -281 -282 0
-72 281 74 0
-72 -281 73 0
73 283 -284 0
-73 -283 0
-73 284 0
74 282 -67 0
74 -282 -69 0
-74 -282 69 0
-74 282 67 0
-75 304 80 0
-75 76 80 0
75 -80 0
75 -304 -76 0
76 -281 -33 0
76 281 -77 0
-76 281 77 0
-76 -281 33 0
77 282 -78 0
77 -282 -79 0
-77 -282 79 0
-77 282 78 0
78 283 -43 0
78 -283 -45 0
-78 -283 45 0
-78 283 43 0
79 283 -46 0
79 -283 -49 0
-79 -283 49 0
-79 283 46 0
80 -281 -285 -88 0
80 281 -285 -81 0
-80 285 0
-80 -281 88 0
-80 281 81 0
81 282 -82 0
81 -282 -85 0
-81 -282 85 0
-81 282 82 0
82 283 -83 0
82 -283 -84 0
-82 -283 84 0
-82 283 83 0
83 -254 -284 0
83 -253 284 0
-83 253 284 0
-83 254 -284 0
84 -256 -284 0
84 -255 284 0
-84 255 284 0
-84 256 -284 0
85 283 -86 0
85 -283 -87 0
-85 -283 87 0
-85 283 86 0
86 -258 -284 0
86 -257 284 0
-86 257 284 0
-86 258 -284 0
87 -260 -284 0
87 -259 284 0
-87 259 284 0
-87 260 -284 0
88 282 -89 0
88 -282 -92 0
-88 -282 92 0
-88 282 89 0
89 283 -90 0
89 -283 -91 0
-89 -283 91 0
-89 283 90 0
90 -262 -284 0
90 -261 284 0
-90 261 284 0
-90 262 -284 0
91 -264 -284 0
91 -263 284 0
-91 263 284 0
-91 264 -284 0
92 283 -93 0
92 -283 -94 0
-92 -283 94 0
-92 283 93 0
93 -266 -284 0
93 -265 284 0
-93 265 284 0
-93 266 -284 0
94 -268 -284 0
94 -267 284 0
-94 267 284 0
-94 268 -284 0
-95 305 96 106 0
-95 96 103 106 0
95 -106 0
95 -96 0
95 -305 -103 0
96 -281 -287 -100 0
96 281 -287 -97 0
-96 287 0
-96 -281 100 0
-96 281 97 0
-97 282 98 0
-97 -282 99 0
97 -282 -99 0
97 282 -98 0
-98 -283 86 0
-98 283 84 0
98 283 -84 0
98 -283 -86 0
99 283 -87 0
99 -283 -90 0
-99 -283 90 0
-99 283 87 0
100 282 -101 0
100 -282 -102 0
-100 -282 102 0
-100 282 101 0
101 283 -91 0
101 -283 -93 0
-101 -283 93 0
-101 283 91 0
102 -283 -54 0
102 283 -94 0
-102 283 94 0
-102 -283 54 0
103 281 -104 0
103 -281 -105 0
-103 -281 105 0
-103 281 104 0
104 282 -56 0
104 -282 -60 0
-104 -282 60 0
-104 282 56 0
105 282 -283 0
105 -281 282 284 0
-105 -282 0
-105 283 -284 0
-105 281 283 0
106 -281 -286 -114 0
106 281 -286 -107 0
-106 286 0
-106 -281 114 0
-106 281 107 0
107 282 -108 0
107 -282 -111 0
-107 -282 111 0
-107 282 108 0
108 283 -109 0
108 -283 -110 0
-108 -283 110 0
-108 283 109 0
109 -255 -284 0
109 -254 284 0
-109 254 284 0
-109 255 -284 0
110 -257 -284 0
110 -256 284 0
-110 256 284 0
-110 257 -284 0
111 283 -112 0
111 -283 -113 0
-111 -283 113 0
-111 283 112 0
112 -259 -284 0
112 -258 284 0
-112 258 284 0
-112 259 -284 0
113 -261 -284 0
113 -260 284 0
-113 260 284 0
-113 261 -284 0
114 282 -115 0
114 -282 -118 0
-114 -282 118 0
-114 282 115 0
115 283 -116 0
115 -283 -117 0
-115 -283 117 0
-115 283 116 0
116 -263 -284 0
116 -262 284 0
-116 262 284 0
-116 263 -284 0
117 -265 -284 0
117 -264 284 0
-117 264 284 0
-117 265 -284 0
118 283 -119 0
118 -283 -120 0
-118 -283 120 0
-118 283 119 0
119 -267 -284 0
119 -266 284 0
-119 266 284 0
-119 267 -284 0
120 -269 -284 0
120 -268 284 0
-120 268 284 0
-120 269 -284 0
-121 51 122 123 0
-121 301 122 123 0
121 -123 0
121 -122 0
121 -301 -51 0
122 -303 -64 0
-122 303 0
-122 64 0
-123 302 124 128 0
-123 39 124 128 0
123 -128 0
123 -124 0
123 -302 -39 0
124 281 -300 -126 0
124 -281 -300 -125 0
-124 300 0
-124 -281 125 0
-124 281 126 0
125 -282 -283 0
125 282 -79 0
125 -282 -35 0
-125 282 79 0
-125 -282 283 35 0
126 -282 -78 0
126 282 -127 0
-126 282 127 0
-126 -282 78 0
127 -283 -42 0
127 283 -120 0
-127 283 120 0
-127 -283 42 0
128 281 -130 0
128 -298 -129 -130 0
-128 130 0
-128 -281 298 0
-128 -281 129 0
129 282 -44 0
129 -282 -48 0
-129 -282 48 0
-129 282 44 0
-130 298 132 0
-130 281 131 132 0
130 -132 0
130 -298 -131 0
130 -281 -298 0
131 -282 -41 0
131 282 -118 0
-131 282 118 0
-131 -282 41 0
-132 310 311 0
-132 47 68 0
-132 311 47 0
-132 310 68 0
132 -310 -47 0
132 -311 -68 0
133 281 31 -134 0
133 281 31 -135 0
-133 -281 0
-133 -31 0
-133 134 135 0
134 -309 -59 0
-134 309 0
-134 59 0
-135 125 129 0
-135 306 308 0
-135 308 129 0
-135 306 125 0
135 -308 -125 0
135 -306 -129 0
-136 -31 9 0
-136 137 163 0
-136 -31 163 0
-136 9 137 0
136 31 -137 0
136 -9 -163 0
-137 138 156 158 160 0
137 -160 0
137 -158 0
137 -138 0
137 -156 0
-138 139 151 0
-138 147 -149 151 0
138 -151 0
138 -139 149 0
138 -139 -147 0
-139 295 140 142 0
-139 100 140 142 0
139 -142 0
139 -140 0
139 -295 -100 0
-140 297 114 0
-140 294 141 0
-140 114 141 0
-140 294 297 0
140 -294 -114 0
140 -297 -141 0
141 -282 -53 0
141 282 -92 0
-141 282 92 0
-141 -282 53 0
-142 281 293 143 0
-142 281 88 143 0
142 -281 0
142 -143 0
142 -293 -88 0
-143 144 145 0
-143 296 299 0
-143 299 145 0
-143 296 144 0
143 -299 -144 0
143 -296 -145 0
144 -282 -66 0
144 282 -102 0
-144 282 102 0
-144 -282 66 0
145 -282 -127 0
145 282 -146 0
-145 282 146 0
-145 -282 127 0
146 283 -117 0
146 -283 -119 0
-146 -283 119 0
-146 283 117 0
-147 40 148 0
-147 294 148 0
147 -148 0
147 -294 -40 0
-148 299 52 0
-148 293 74 0
-148 52 74 0
-148 293 299 0
148 -293 -52 0
148 -299 -74 0
149 -281 65 150 0
149 -281 295 150 0
-149 -150 0
-149 281 0
-149 -295 -65 0
-150 297 77 0
-150 296 104 0
-150 77 104 0
-150 296 297 0
150 -296 -77 0
150 -297 -104 0
-151 -281 152 0
-151 281 153 155 0
151 281 -155 0
151 -281 -152 0
151 281 -153 0
-152 126 131 0
-152 290 292 0
-152 292 131 0
-152 290 126 0
152 -292 -126 0
152 -290 -131 0
153 282 -292 -154 0
153 -282 -292 -146 0
-153 292 0
-153 -282 146 0
-153 282 154 0
154 283 -113 0
154 -283 -116 0
-154 -283 116 0
-154 283 113 0
155 -282 -290 -115 0
155 282 -290 -111 0
-155 290 0
-155 -282 115 0
-155 282 111 0
156 281 -289 -157 0
156 -281 -289 -141 0
-156 289 0
-156 281 157 0
-156 -281 141 0
-157 -282 89 0
-157 282 85 0
157 282 -85 0
157 -282 -89 0
158 281 -291 -159 0
158 -281 -291 -144 0
-158 291 0
-158 281 159 0
-158 -281 144 0
-159 -282 101 0
-159 282 99 0
159 282 -99 0
159 -282 -101 0
160 281 -288 -161 0
160 -281 -288 -145 0
-160 288 0
-160 281 161 0
-160 -281 145 0
-161 -282 154 0
-161 282 162 0
161 -282 -154 0
161 282 -162 0
-162 -283 112 0
-162 283 110 0
162 283 -110 0
162 -283 -112 0
-163 -281 167 170 0
-163 164 167 170 0
163 -170 0
163 -167 0
163 281 -164 0
-164 293 165 166 0
-164 59 165 166 0
164 -166 0
164 -165 0
164 -293 -59 0
-165 125 129 0
-165 290 292 0
-165 292 129 0
-165 290 125 0
165 -292 -125 0
165 -290 -129 0
-166 294 295 0
-166 47 68 0
-166 295 47 0
-166 294 68 0
166 -294 -47 0
166 -295 -68 0
-167 76 168 0
-167 288 168 0
167 -168 0
167 -288 -76 0
-168 299 32 0
-168 296 169 0
-168 32 169 0
-168 296 299 0
168 -296 -32 0
168 -299 -169 0
169 281 282 283 -284 0
-169 284 0
-169 -283 0
-169 -281 0
-169 -282 0
-170 171 172 0
-170 297 172 0
170 -172 0
170 -297 -171 0
171 281 282 -283 0
-171 283 0
-171 -282 0
-171 -281 0
-172 72 103 0
-172 289 291 0
-172 291 103 0
-172 289 72 0
172 -291 -72 0
172 -289 -103 0
173 -313 31 -171 0
-173 313 0
-173 -31 0
-173 171 0
174 -284 169 0
174 -284 315 0
174 -284 -31 0
-174 284 0
-174 -315 31 -169 0
175 -281 10 -176 183 0
-175 -10 0
-175 -183 0
-175 281 0
-175 176 0
-176 280 -282 177 0
-176 280 282 180 0
176 -280 0
176 -282 -177 0
176 282 -180 0
177 -283 -178 0
177 283 -179 0
-177 283 179 0
-177 -283 178 0
178 -284 -298 0
178 284 -299 0
-178 284 299 0
-178 -284 298 0
179 -284 -300 0
179 284 -301 0
-179 284 301 0
-179 -284 300 0
180 -283 -181 0
180 283 -182 0
-180 283 182 0
-180 -283 181 0
181 -284 -302 0
181 284 -303 0
-181 284 303 0
-181 -284 302 0
182 -284 -304 0
182 284 -305 0
-182 284 305 0
-182 -284 304 0
183 -280 184 185 0
183 -280 185 188 0
-183 280 0
-183 -185 0
-183 -184 -188 0
184 -282 283 0
-184 282 0
-184 -283 0
185 282 283 -187 0
185 282 -283 -186 0
-185 -282 0
-185 -283 186 0
-185 283 187 0
186 -284 -286 0
186 284 -287 0
-186 284 287 0
-186 -284 286 0
187 -284 -288 0
187 284 -289 0
-187 284 289 0
-187 -284 288 0
188 284 -285 0
-188 -284 0
-188 285 0
189 190 -222 0
189 -190 201 -242 0
-189 -190 -201 0
-189 190 222 0
-189 -190 242 0
190 -282 10 -191 198 0
-190 -10 0
-190 -198 0
-190 282 0
-190 191 0
-191 280 -281 192 0
-191 280 281 195 0
191 -280 0
191 -281 -192 0
191 281 -195 0
192 -283 -193 0
192 283 -194 0
-192 283 194 0
-192 -283 193 0
193 -284 -299 0
193 284 -300 0
-193 284 300 0
-193 -284 299 0
194 -284 -301 0
194 284 -302 0
-194 284 302 0
-194 -284 301 0
195 -283 -196 0
195 283 -197 0
-195 283 197 0
-195 -283 196 0
196 -284 -307 0
196 284 -308 0
-196 284 308 0
-196 -284 307 0
197 -284 -309 0
197 284 -310 0
-197 284 310 0
-197 -284 309 0
198 -280 281 199 0
198 -280 -281 200 0
-198 280 0
-198 -281 -200 0
-198 281 -199 0
-199 283 27 0
-199 -283 24 0
199 -283 -24 0
199 283 -27 0
200 -282 283 -7 0
-200 282 0
-200 -283 0
-200 7 0
201 -280 -202 -221 0
201 280 -211 -221 0
-201 221 0
-201 -280 202 0
-201 280 211 0
202 281 -206 0
202 -281 203 -204 0
-202 -281 -203 0
-202 281 206 0
-202 -281 204 0
203 -282 -283 188 0
203 -282 283 186 0
-203 282 0
-203 -283 -188 0
-203 283 -186 0
-204 282 -283 187 0
-204 282 283 205 0
204 -282 0
204 -283 -187 0
204 283 -205 0
205 -284 -290 0
205 284 -291 0
-205 284 291 0
-205 -284 290 0
206 282 -209 0
206 -282 207 -208 0
-206 -282 -207 0
-206 282 209 0
-206 -282 208 0
207 -283 284 293 0
207 -283 -284 292 0
-207 283 0
-207 -284 -292 0
-207 284 -293 0
-208 283 -284 294 0
-208 283 284 295 0
208 -283 0
208 -284 -294 0
208 284 -295 0
209 283 -178 0
209 -283 -210 0
-209 -283 210 0
-209 283 178 0
210 -284 -296 0
210 284 -297 0
-210 284 297 0
-210 -284 296 0
211 281 -215 0
211 -281 212 -213 0
-211 -281 -212 0
-211 281 215 0
-211 -281 213 0
212 -282 283 181 0
212 -282 -283 179 0
-212 282 0
-212 -283 -179 0
-212 283 -181 0
-213 282 -283 182 0
-213 282 283 214 0
213 -282 0
213 -283 -182 0
213 283 -214 0
214 -284 -306 0
214 284 -307 0
-214 284 307 0
-214 -284 306 0
215 -282 -216 0
215 282 219 -220 0
-215 282 220 0
-215 -282 216 0
-215 282 -219 0
216 -283 -217 0
216 283 -218 0
-216 283 218 0
-216 -283 217 0
217 -284 -308 0
217 284 -309 0
-217 284 309 0
-217 -284 308 0
218 -284 -310 0
218 284 -311 0
-218 284 311 0
-218 -284 310 0
219 -283 284 313 0
219 -283 -284 312 0
-219 283 0
-219 -284 -312 0
-219 284 -313 0
-220 283 -284 314 0
-220 283 284 315 0
220 -283 0
220 -284 -314 0
220 284 -315 0
221 -283 10 0
-221 283 0
-221 -10 0
222 -201 -240 0
222 -284 201 223 0
-222 201 -223 0
-222 -201 240 0
-222 284 201 0
223 283 -224 0
-223 -283 0
-223 224 0
224 281 10 -231 0
224 -281 10 -225 0
-224 -10 0
-224 -281 225 0
-224 281 231 0
225 -280 -226 0
225 280 227 -229 0
-225 280 229 0
-225 -280 226 0
-225 280 -227 0
226 -282 -5 0
226 282 -22 0
-226 282 22 0
-226 -282 5 0
227 -282 283 228 0
227 -282 -283 194 0
-227 282 0
-227 -283 -194 0
-227 283 -228 0
228 -284 -303 0
228 284 -304 0
-228 284 304 0
-228 -284 303 0
-229 282 -283 230 0
-229 282 283 196 0
229 -282 0
229 -283 -230 0
229 283 -196 0
-230 284 306 0
-230 -284 305 0
230 -284 -305 0
230 284 -306 0
231 280 -232 0
231 -280 -237 0
-231 -280 237 0
-231 280 232 0
232 -283 -235 0
232 283 233 -234 0
-232 283 -233 0
-232 -283 235 0
-232 283 234 0
233 -282 284 312 0
233 -282 -284 311 0
-233 282 0
-233 -284 -311 0
-233 284 -312 0
234 -282 0
234 -284 -315 0
234 284 -316 0
-234 282 -284 315 0
-234 282 284 316 0
235 -197 -236 0
235 282 -236 0
-235 236 0
-235 -282 197 0
236 -282 0
236 -284 -313 0
236 284 -314 0
-236 282 -284 313 0
-236 282 284 314 0
237 -282 -25 0
237 282 -238 0
-237 282 238 0
-237 -282 25 0
238 283 -193 0
238 -283 -239 0
-238 -283 239 0
-238 283 193 0
239 -284 -297 0
239 284 -298 0
-239 284 298 0
-239 -284 297 0
240 -282 241 0
240 -281 -241 0
-240 282 241 0
-240 281 -241 0
241 -284 -224 0
-241 284 0
-241 224 0
242 -280 241 0
-242 280 0
-242 -241 0
243 -30 36 0
243 -281 36 0
-243 -36 0
-243 281 30 0
244 175 190 201 -245 0
-244 245 0
-244 -201 0
-244 -175 0
-244 -190 0
245 -281 241 0
245 -280 -241 0
-245 281 241 0
-245 280 -241 0
246 4 175 247 -248 0
-246 248 0
-246 -247 0
-246 -4 0
-246 -175 0
247 -30 36 0
247 -283 36 173 0
-247 -36 0
-247 30 -173 0
-247 283 30 0
248 190 201 -249 0
248 190 -201 -245 0
-248 -190 0
-248 -201 245 0
-248 201 249 0
249 -283 241 0
249 -282 -241 0
-249 283 241 0
-249 282 -241 0
250 -30 36 0
250 -282 36 0
-250 -36 0
-250 282 30 0
251 4 175 190 -252 0
-251 252 0
-251 -190 0
-251 -4 0
-251 -175 0
252 201 -240 0
252 -201 -242 0
-252 -201 242 0
-252 201 240 0
-317 0
2 0

